\ Model Asignacion_cosecha_copy
\ LP format - for model browsing. Use MPS format to capture full model detail.
\ Signature: 0x74aef593b6f1c9f8
Maximize
 
Subject To
 R36: w_1_3_skidder_1 >= 40
 restriccion_2_1_3_skidder_1: w_1_3_skidder_1 <= 0
Bounds
 w_1_3_skidder_1 free
End
